bacp/03/params/inst-568-1-960833342.param
language Essence 1.3
$ generated by bacp-gen.pl with seed 960833342
$ edge probability 0.0968
$ course loads in range 2..8
letting n_courses be 135
letting n_periods be 26
letting load_per_period_lb be 9
letting load_per_period_ub be 25
letting courses_per_period_lb be 5
letting courses_per_period_ub be 9
letting course_load be function(
1 --> 7,
2 --> 7,
3 --> 3,
4 --> 2,
5 --> 4,
6 --> 7,
7 --> 7,
8 --> 2,
9 --> 2,
10 --> 6,
11 --> 6,
12 --> 3,
13 --> 5,
14 --> 7,
15 --> 3,
16 --> 6,
17 --> 7,
18 --> 2,
19 --> 2,
20 --> 8,
21 --> 4,
22 --> 3,
23 --> 6,
24 --> 7,
25 --> 3,
26 --> 7,
27 --> 5,
28 --> 7,
29 --> 3,
30 --> 8,
31 --> 7,
32 --> 2,
33 --> 7,
34 --> 3,
35 --> 8,
36 --> 3,
37 --> 6,
38 --> 7,
39 --> 6,
40 --> 7,
41 --> 3,
42 --> 3,
43 --> 5,
44 --> 4,
45 --> 2,
46 --> 6,
47 --> 3,
48 --> 2,
49 --> 4,
50 --> 4,
51 --> 4,
52 --> 4,
53 --> 2,
54 --> 3,
55 --> 6,
56 --> 7,
57 --> 7,
58 --> 6,
59 --> 4,
60 --> 5,
61 --> 7,
62 --> 6,
63 --> 3,
64 --> 6,
65 --> 7,
66 --> 7,
67 --> 2,
68 --> 6,
69 --> 2,
70 --> 7,
71 --> 2,
72 --> 7,
73 --> 3,
74 --> 3,
75 --> 6,
76 --> 7,
77 --> 3,
78 --> 2,
79 --> 4,
80 --> 5,
81 --> 2,
82 --> 4,
83 --> 5,
84 --> 4,
85 --> 8,
86 --> 3,
87 --> 4,
88 --> 7,
89 --> 4,
90 --> 3,
91 --> 6,
92 --> 8,
93 --> 2,
94 --> 5,
95 --> 5,
96 --> 4,
97 --> 3,
98 --> 4,
99 --> 5,
100 --> 8,
101 --> 7,
102 --> 3,
103 --> 6,
104 --> 4,
105 --> 6,
106 --> 4,
107 --> 3,
108 --> 6,
109 --> 4,
110 --> 3,
111 --> 7,
112 --> 3,
113 --> 3,
114 --> 5,
115 --> 2,
116 --> 2,
117 --> 2,
118 --> 4,
119 --> 5,
120 --> 7,
121 --> 2,
122 --> 5,
123 --> 6,
124 --> 3,
125 --> 2,
126 --> 7,
127 --> 4,
128 --> 5,
129 --> 5,
130 --> 3,
131 --> 4,
132 --> 5,
133 --> 5,
134 --> 3,
135 --> 3
)
letting prerequisite be relation (
(5,39),
(19,40),
(20,41),
(14,42),
(31,43),
(8,44),
(24,45),
(23,46),
(1,47),
(4,48),
(25,49),
(34,50),
(36,51),
(4,52),
(20,53),
(34,54),
(31,55),
(30,56),
(38,57),
(16,58),
(35,59),
(22,60),
(9,61),
(36,62),
(8,63),
(13,64),
(4,65),
(30,66),
(27,67),
(18,68),
(23,69),
(21,70),
(38,71),
(17,72),
(14,73),
(12,74),
(3,75),
(4,76),
(8,77),
(27,78),
(11,79),
(16,80),
(34,81),
(16,82),
(16,83),
(36,84),
(28,85),
(16,86),
(18,87),
(35,88),
(24,89),
(26,90),
(13,91),
(10,92),
(8,93),
(29,94),
(27,95),
(32,96),
(8,97),
(9,98),
(5,99),
(15,100),
(24,101),
(28,102),
(12,103),
(21,104),
(8,105),
(18,106),
(5,107),
(35,108),
(10,109),
(8,110),
(91,111),
(60,112),
(77,113),
(73,114),
(91,115),
(49,116),
(55,117),
(46,118),
(71,119),
(54,120),
(105,121),
(93,122),
(76,123),
(98,124),
(81,125),
(54,126),
(67,127),
(51,128),
(83,129),
(58,130),
(72,131),
(91,132),
(98,133),
(70,134),
(85,135),
(13,61),
(68,124),
(29,103),
(13,107),
(66,127),
(94,129),
(43,134),
(53,129),
(37,67),
(94,121),
(66,131),
(97,124),
(48,132),
(82,128),
(7,66),
(91,134),
(42,125),
(44,123),
(4,96),
(19,92),
(18,105),
(4,110),
(89,123),
(43,118),
(50,130),
(62,123),
(15,47),
(98,119),
(5,54),
(13,73),
(43,128),
(38,56),
(95,115),
(102,114),
(106,112),
(57,121),
(89,117),
(25,42),
(31,56),
(27,54),
(22,94),
(37,66),
(45,129),
(32,47),
(87,114),
(3,86),
(96,126),
(24,103),
(30,46),
(11,108),
(84,130),
(51,114),
(47,117),
(85,122),
(5,48),
(36,71),
(68,120),
(18,53),
(31,87),
(30,107),
(22,104),
(64,127),
(93,121),
(80,130),
(10,64),
(23,39),
(27,110),
(25,46),
(8,102),
(19,87),
(20,108),
(16,74),
(76,133),
(39,121),
(7,44),
(56,131),
(22,70),
(10,47),
(36,57),
(79,130),
(4,71),
(11,42),
(16,91),
(14,105),
(11,81),
(28,59),
(33,89),
(23,48),
(68,129),
(10,59),
(69,129),
(30,74),
(78,130),
(107,133),
(104,116),
(20,103),
(4,62),
(16,103),
(78,131),
(19,94),
(65,121),
(98,114),
(38,72),
(38,77),
(49,121),
(1,70),
(5,62),
(52,119),
(19,103),
(12,97),
(10,68),
(34,89),
(88,113),
(81,120),
(73,118),
(32,73),
(48,120),
(50,115),
(34,94),
(86,134),
(34,67),
(29,77),
(44,117),
(35,39),
(108,126),
(16,75),
(91,121),
(18,101),
(5,45),
(73,128),
(3,102),
(30,83),
(30,94),
(11,83),
(69,123),
(40,135),
(40,118),
(6,51),
(101,129),
(55,125),
(6,108),
(16,87),
(21,82),
(15,42),
(75,127),
(104,114),
(25,96),
(39,120),
(50,131),
(11,103),
(21,45),
(30,48),
(7,96),
(4,107),
(32,65),
(13,57),
(12,43),
(44,114),
(59,117),
(30,100),
(3,83),
(26,76),
(34,60),
(82,112),
(72,112),
(47,114),
(82,133),
(46,135),
(15,104),
(26,66),
(95,124),
(30,77),
(68,115),
(64,122),
(50,128),
(33,77),
(20,44),
(72,117),
(59,124),
(71,124),
(8,48),
(61,130),
(44,126),
(26,65),
(66,122),
(17,110),
(26,44),
(12,52),
(5,70),
(22,103),
(73,116),
(52,134),
(86,120),
(67,118),
(29,81),
(48,122),
(7,76),
(13,76),
(69,112),
(32,57),
(14,53),
(65,130),
(8,79),
(31,105),
(32,106),
(5,49),
(76,115),
(16,85),
(38,59),
(89,121),
(24,107),
(15,48),
(54,114),
(62,120),
(92,119),
(109,125),
(29,74),
(98,129),
(101,126),
(18,60),
(97,123),
(36,81),
(1,72),
(95,127),
(100,135),
(58,134),
(30,63),
(26,42),
(76,122),
(7,82),
(3,85),
(39,128),
(6,49),
(33,39),
(21,58),
(97,114),
(62,130),
(16,70),
(52,132),
(9,69),
(37,97),
(36,55),
(38,83),
(56,113),
(8,90),
(12,60),
(35,90),
(14,47),
(5,100),
(15,79),
(2,60),
(77,130),
(5,92),
(85,115),
(19,106),
(109,131),
(36,97),
(47,118),
(53,135),
(6,107),
(83,113),
(107,118),
(34,100),
(87,131),
(100,117),
(4,95),
(84,122),
(89,126),
(104,113),
(4,63),
(9,60),
(27,79),
(98,115),
(7,52),
(72,130),
(40,124),
(18,39),
(7,99),
(76,132),
(5,93),
(24,69),
(55,118),
(57,122),
(12,46),
(10,85),
(30,76),
(104,131),
(69,126),
(107,132),
(6,105),
(65,115),
(30,44),
(16,49),
(17,54),
(57,116),
(45,114),
(13,97),
(64,120),
(71,113),
(100,129),
(38,102),
(75,114),
(70,113),
(15,51),
(31,80),
(7,89),
(74,125),
(90,114),
(63,128),
(71,133),
(82,115),
(82,116),
(14,95),
(49,122),
(99,115),
(105,114),
(75,120),
(102,132),
(45,122),
(52,122),
(55,128),
(27,88),
(79,113),
(6,53),
(89,116),
(10,70),
(96,127),
(64,116),
(22,78),
(21,41),
(37,57),
(16,41),
(56,116),
(98,113),
(20,76),
(1,80),
(23,66),
(93,113),
(65,133),
(7,65),
(16,46),
(62,114)
)

