bacp/param_dec/inst-568-1-960833342.eprime-param
language ESSENCE' 1.0

letting n_courses be 135
letting n_periods be 26
letting prerequisite_RelationAsSet_Explicit_1 be
        [1, 1, 1, 1, 2, 3, 3, 3, 3, 3, 4, 4, 4, 4, 4, 4, 4, 4, 4, 4, 4, 5, 5, 5, 5, 5, 5, 5, 5, 5, 5, 5, 5, 6, 6, 6, 6,
         6, 6, 7, 7, 7, 7, 7, 7, 7, 7, 7, 8, 8, 8, 8, 8, 8, 8, 8, 8, 8, 8, 9, 9, 9, 9, 10, 10, 10, 10, 10, 10, 10, 10,
         11, 11, 11, 11, 11, 11, 12, 12, 12, 12, 12, 12, 12, 13, 13, 13, 13, 13, 13, 13, 13, 14, 14, 14, 14, 14, 14, 15,
         15, 15, 15, 15, 15, 15, 16, 16, 16, 16, 16, 16, 16, 16, 16, 16, 16, 16, 16, 16, 16, 17, 17, 17, 18, 18, 18, 18,
         18, 18, 18, 18, 19, 19, 19, 19, 19, 19, 20, 20, 20, 20, 20, 20, 21, 21, 21, 21, 21, 21, 22, 22, 22, 22, 22, 22,
         23, 23, 23, 23, 23, 24, 24, 24, 24, 24, 24, 25, 25, 25, 25, 26, 26, 26, 26, 26, 26, 27, 27, 27, 27, 27, 27, 27,
         28, 28, 28, 29, 29, 29, 29, 29, 30, 30, 30, 30, 30, 30, 30, 30, 30, 30, 30, 30, 30, 31, 31, 31, 31, 31, 31, 32,
         32, 32, 32, 32, 32, 33, 33, 33, 34, 34, 34, 34, 34, 34, 34, 34, 35, 35, 35, 35, 35, 36, 36, 36, 36, 36, 36, 36,
         36, 37, 37, 37, 37, 38, 38, 38, 38, 38, 38, 38, 38, 39, 39, 39, 40, 40, 40, 42, 43, 43, 43, 44, 44, 44, 44, 45,
         45, 45, 46, 46, 47, 47, 47, 48, 48, 48, 49, 49, 49, 50, 50, 50, 50, 51, 51, 52, 52, 52, 52, 53, 53, 54, 54, 54,
         55, 55, 55, 55, 56, 56, 56, 57, 57, 57, 58, 58, 59, 59, 60, 61, 62, 62, 62, 62, 63, 64, 64, 64, 64, 65, 65, 65,
         65, 66, 66, 66, 67, 67, 68, 68, 68, 68, 69, 69, 69, 69, 70, 70, 71, 71, 71, 71, 72, 72, 72, 72, 73, 73, 73, 73,
         74, 75, 75, 75, 76, 76, 76, 76, 76, 77, 77, 78, 78, 79, 79, 80, 81, 81, 82, 82, 82, 82, 82, 83, 83, 84, 84, 85,
         85, 85, 86, 86, 87, 87, 88, 89, 89, 89, 89, 89, 90, 91, 91, 91, 91, 91, 92, 93, 93, 93, 94, 94, 95, 95, 95, 96,
         96, 97, 97, 97, 98, 98, 98, 98, 98, 98, 98, 99, 100, 100, 100, 101, 101, 102, 102, 104, 104, 104, 104, 105,
         105, 106, 107, 107, 107, 108, 109, 109;
             int(1..439)]
letting prerequisite_RelationAsSet_Explicit_2 be
        [47, 70, 72, 80, 60, 75, 83, 85, 86, 102, 48, 52, 62, 63, 65, 71, 76, 95, 96, 107, 110, 39, 45, 48, 49, 54, 62,
         70, 92, 93, 99, 100, 107, 49, 51, 53, 105, 107, 108, 44, 52, 65, 66, 76, 82, 89, 96, 99, 44, 48, 63, 77, 79,
         90, 93, 97, 102, 105, 110, 60, 61, 69, 98, 47, 59, 64, 68, 70, 85, 92, 109, 42, 79, 81, 83, 103, 108, 43, 46,
         52, 60, 74, 97, 103, 57, 61, 64, 73, 76, 91, 97, 107, 42, 47, 53, 73, 95, 105, 42, 47, 48, 51, 79, 100, 104,
         41, 46, 49, 58, 70, 74, 75, 80, 82, 83, 85, 86, 87, 91, 103, 54, 72, 110, 39, 53, 60, 68, 87, 101, 105, 106,
         40, 87, 92, 94, 103, 106, 41, 44, 53, 76, 103, 108, 41, 45, 58, 70, 82, 104, 60, 70, 78, 94, 103, 104, 39, 46,
         48, 66, 69, 45, 69, 89, 101, 103, 107, 42, 46, 49, 96, 42, 44, 65, 66, 76, 90, 54, 67, 78, 79, 88, 95, 110, 59,
         85, 102, 74, 77, 81, 94, 103, 44, 46, 48, 56, 63, 66, 74, 76, 77, 83, 94, 100, 107, 43, 55, 56, 80, 87, 105,
         47, 57, 65, 73, 96, 106, 39, 77, 89, 50, 54, 60, 67, 81, 89, 94, 100, 39, 59, 88, 90, 108, 51, 55, 57, 62, 71,
         81, 84, 97, 57, 66, 67, 97, 56, 57, 59, 71, 72, 77, 83, 102, 120, 121, 128, 118, 124, 135, 125, 118, 128, 134,
         114, 117, 123, 126, 114, 122, 129, 118, 135, 114, 117, 118, 120, 122, 132, 116, 121, 122, 115, 128, 130, 131,
         114, 128, 119, 122, 132, 134, 129, 135, 114, 120, 126, 117, 118, 125, 128, 113, 116, 131, 116, 121, 122, 130,
         134, 117, 124, 112, 130, 114, 120, 123, 130, 128, 116, 120, 122, 127, 115, 121, 130, 133, 122, 127, 131, 118,
         127, 115, 120, 124, 129, 112, 123, 126, 129, 113, 134, 113, 119, 124, 133, 112, 117, 130, 131, 114, 116, 118,
         128, 125, 114, 120, 127, 115, 122, 123, 132, 133, 113, 130, 130, 131, 113, 130, 130, 120, 125, 112, 115, 116,
         128, 133, 113, 129, 122, 130, 115, 122, 135, 120, 134, 114, 131, 113, 116, 117, 121, 123, 126, 114, 111, 115,
         121, 132, 134, 119, 113, 121, 122, 121, 129, 115, 124, 127, 126, 127, 114, 123, 124, 113, 114, 115, 119, 124,
         129, 133, 115, 117, 129, 135, 126, 129, 114, 132, 113, 114, 116, 131, 114, 121, 112, 118, 132, 133, 126, 125,
         131;
             int(1..439)]
letting course_load_Function1D be
        [7, 7, 3, 2, 4, 7, 7, 2, 2, 6, 6, 3, 5, 7, 3, 6, 7, 2, 2, 8, 4, 3, 6, 7, 3, 7, 5, 7, 3, 8, 7, 2, 7, 3, 8, 3, 6,
         7, 6, 7, 3, 3, 5, 4, 2, 6, 3, 2, 4, 4, 4, 4, 2, 3, 6, 7, 7, 6, 4, 5, 7, 6, 3, 6, 7, 7, 2, 6, 2, 7, 2, 7, 3, 3,
         6, 7, 3, 2, 4, 5, 2, 4, 5, 4, 8, 3, 4, 7, 4, 3, 6, 8, 2, 5, 5, 4, 3, 4, 5, 8, 7, 3, 6, 4, 6, 4, 3, 6, 4, 3, 7,
         3, 3, 5, 2, 2, 2, 4, 5, 7, 2, 5, 6, 3, 2, 7, 4, 5, 5, 3, 4, 5, 5, 3, 3;
             int(1..135)]
letting load_per_period_ub be 25
letting load_per_period_lb be 9
letting courses_per_period_ub be 9
letting courses_per_period_lb be 5
letting fin1 be 439
letting fin2 be 135
letting fin3 be 8
